100
128
5
11
15
26
24
12
61
1
56
44
47
48
14
47
7
63
39
1
46
52
24
2
41
1
9
30
34
57
39
41
39
63
53
9
52
52
57
36
40
40
38
33
39
56
47
2
46
61
45
3
1
55
11
41
63
60
14
7
54
7
63
46
5
43
5
31
2
32
1
64
48
39
60
15
36
41
10
7
12
36
55
59
50
5
51
30
47
30
38
34
32
14
1
42
2
59
64
5
44
35